Optimal - objective value 3881.00000000
      7 x_0_8                   1                      36
     17 x_1_2                   1                    -302
     45 x_2_14                  1                       0
     52 x_3_5                   1                     401
     76 x_4_13                  1                       0
     90 x_5_11                  1                      24
     97 x_6_1                   1                       0
    115 x_7_3                   1                       0
    135 x_8_7                   1                    -200
    150 x_9_6                   1                     142
    160 x_10_0                  1                    -265
    185 x_11_9                  1                     248
    206 x_12_15                 1                       2
    218 x_13_10                 1                      81
    239 x_14_16                 1                     469
    244 x_15_4                  1                       0
    268 x_16_12                 1                       0
    272 u_1                     8                       0
    273 u_2                     9                       0
    274 u_3                     3                       0
    275 u_4                    14                       0
    276 u_5                     4                       0
    277 u_6                     7                       0
    278 u_7                     2                       0
    279 u_8                     1                       0
    280 u_9                     6                       0
    281 u_10                   16                       0
    282 u_11                    5                       0
    283 u_12                   12                       0
    284 u_13                   15                       0
    285 u_14                   10                       0
    286 u_15                   13                       0
    287 u_16                   11                       0
